pymatgen with grid density = 219 / number of atoms
0
Gamma
6 4 1
