Cd10 Te10
1.0
   4.6874447021115033    0.0000000000000000    0.0000000000000003
  -0.0000000000000004    6.6290478706000000    0.0000000000000004
   0.0000000000000000    0.0000000000000000   65.6242258295610412
Cd Te
10 10
direct
   0.7499999999999993    0.0000000000000000    0.3750000000000000 Cd2+
   0.2499999999999996    0.5000000000000000    0.3392857142857143 Cd2+
   0.7499999999999994    0.0000000000000000    0.4464285714285715 Cd2+
   0.2499999999999996    0.5000000000000000    0.4107142857142856 Cd2+
   0.7499999999999993    0.0000000000000000    0.5178571428571428 Cd2+
   0.2499999999999988    0.5000000000000000    0.4821428571428571 Cd2+
   0.7499999999999984    0.0000000000000000    0.5892857142857143 Cd2+
   0.2499999999999989    0.5000000000000000    0.5535714285714286 Cd2+
   0.7499999999999982    0.0000000000000000    0.6607142857142856 Cd2+
   0.2499999999999987    0.5000000000000000    0.6250000000000000 Cd2+
   0.7499999999999996    0.7500000000000000    0.3392857142857142 Te2-
   0.2499999999999997    0.2500000000000000    0.3749999999999999 Te2-
   0.7499999999999987    0.7500000000000000    0.4107142857142857 Te2-
   0.2499999999999993    0.2500000000000000    0.4464285714285714 Te2-
   0.7499999999999993    0.7500000000000000    0.4821428571428571 Te2-
   0.2499999999999987    0.2500000000000000    0.5178571428571428 Te2-
   0.7499999999999991    0.7500000000000000    0.5535714285714286 Te2-
   0.2499999999999992    0.2500000000000000    0.5892857142857143 Te2-
   0.7499999999999989    0.7500000000000000    0.6250000000000000 Te2-
   0.2499999999999990    0.2500000000000000    0.6607142857142856 Te2-
