Cd18 Te18
1.0
   4.6874447021115033    0.0000000000000000    0.0000000000000003
  -0.0000000000000004    6.6290478706000000    0.0000000000000004
   0.0000000000000000    0.0000000000000000   84.3740046380070510
Cd Te
18 18
direct
   0.7499999999999998    0.0000000000000000    0.2916666666666667 Cd2+
   0.2500000000000003    0.5000000000000000    0.2638888888888888 Cd2+
   0.7500000000000000    0.0000000000000000    0.3472222222222222 Cd2+
   0.2500000000000001    0.5000000000000000    0.3194444444444444 Cd2+
   0.7499999999999992    0.0000000000000000    0.4027777777777778 Cd2+
   0.2500000000000002    0.5000000000000000    0.3750000000000000 Cd2+
   0.7499999999999996    0.0000000000000000    0.4583333333333333 Cd2+
   0.2499999999999994    0.5000000000000000    0.4305555555555555 Cd2+
   0.7499999999999998    0.0000000000000000    0.5138888888888888 Cd2+
   0.2500000000000002    0.5000000000000000    0.4861111111111110 Cd2+
   0.7500000000000009    0.0000000000000000    0.5694444444444444 Cd2+
   0.2499999999999998    0.5000000000000000    0.5416666666666666 Cd2+
   0.7499999999999996    0.0000000000000000    0.6249999999999999 Cd2+
   0.2499999999999996    0.5000000000000000    0.5972222222222221 Cd2+
   0.7500000000000002    0.0000000000000000    0.6805555555555555 Cd2+
   0.2499999999999994    0.5000000000000000    0.6527777777777776 Cd2+
   0.7500000000000000    0.0000000000000000    0.7361111111111109 Cd2+
   0.2499999999999991    0.5000000000000000    0.7083333333333331 Cd2+
   0.7500000000000000    0.7500000000000000    0.2638888888888889 Te2-
   0.2500000000000001    0.2500000000000000    0.2916666666666666 Te2-
   0.7499999999999998    0.7500000000000000    0.3194444444444444 Te2-
   0.2499999999999993    0.2500000000000000    0.3472222222222222 Te2-
   0.7500000000000003    0.7500000000000000    0.3749999999999999 Te2-
   0.2499999999999996    0.2500000000000000    0.4027777777777777 Te2-
   0.7500000000000000    0.7500000000000000    0.4305555555555555 Te2-
   0.2499999999999994    0.2500000000000000    0.4583333333333332 Te2-
   0.7499999999999999    0.7500000000000000    0.4861111111111110 Te2-
   0.2500000000000010    0.2500000000000000    0.5138888888888888 Te2-
   0.7500000000000008    0.7500000000000000    0.5416666666666666 Te2-
   0.2499999999999998    0.2500000000000000    0.5694444444444443 Te2-
   0.7499999999999998    0.7500000000000000    0.5972222222222221 Te2-
   0.2499999999999994    0.2500000000000000    0.6249999999999999 Te2-
   0.7499999999999994    0.7500000000000000    0.6527777777777777 Te2-
   0.2499999999999991    0.2500000000000000    0.6805555555555555 Te2-
   0.7500000000000002    0.7500000000000000    0.7083333333333331 Te2-
   0.2499999999999997    0.2500000000000000    0.7361111111111112 Te2-
