Cd10 Te10
1.0
   4.6874447021115033    0.0000000000000000    0.0000000000000003
  -0.0000000000000004    6.6290478706000000    0.0000000000000004
   0.0000000000000000    0.0000000000000000   46.8744470211150315
Cd Te
10 10
direct
   0.7500000000000001    0.0000000000000000    0.3250000000000000 Cd2+
   0.2500000000000001    0.5000000000000000    0.2750000000000000 Cd2+
   0.7499999999999999    0.0000000000000000    0.4249999999999999 Cd2+
   0.2500000000000001    0.5000000000000000    0.3749999999999999 Cd2+
   0.7499999999999998    0.0000000000000000    0.5250000000000000 Cd2+
   0.2500000000000003    0.5000000000000000    0.4749999999999999 Cd2+
   0.7500000000000004    0.0000000000000000    0.6250000000000000 Cd2+
   0.2500000000000000    0.5000000000000000    0.5750000000000000 Cd2+
   0.7500000000000011    0.0000000000000000    0.7250000000000000 Cd2+
   0.2500000000000007    0.5000000000000000    0.6750000000000000 Cd2+
   0.7499999999999998    0.7500000000000000    0.2750000000000000 Te2-
   0.2500000000000000    0.2500000000000000    0.3250000000000000 Te2-
   0.7500000000000000    0.7500000000000000    0.3750000000000000 Te2-
   0.2500000000000000    0.2500000000000000    0.4250000000000000 Te2-
   0.7500000000000000    0.7500000000000000    0.4750000000000000 Te2-
   0.2500000000000001    0.2500000000000000    0.5250000000000000 Te2-
   0.7500000000000002    0.7500000000000000    0.5750000000000000 Te2-
   0.2499999999999998    0.2500000000000000    0.6250000000000000 Te2-
   0.7500000000000008    0.7500000000000000    0.6749999999999999 Te2-
   0.2500000000000000    0.2500000000000000    0.7250000000000001 Te2-
