pymatgen with grid density = 394 / number of atoms
0
Gamma
6 4 1
