Cd18 Te18
1.0
   4.6874447021115033    0.0000000000000000    0.0000000000000003
  -0.0000000000000004    6.6290478706000000    0.0000000000000004
   0.0000000000000000    0.0000000000000000   65.6242258295610412
Cd Te
18 18
direct
   0.7499999999999999    0.0000000000000000    0.2321428571428572 Cd2+
   0.2499999999999999    0.5000000000000000    0.1964285714285714 Cd2+
   0.7499999999999993    0.0000000000000000    0.3035714285714286 Cd2+
   0.2499999999999996    0.5000000000000000    0.2678571428571429 Cd2+
   0.7499999999999993    0.0000000000000000    0.3750000000000000 Cd2+
   0.2499999999999993    0.5000000000000000    0.3392857142857143 Cd2+
   0.7499999999999986    0.0000000000000000    0.4464285714285714 Cd2+
   0.2499999999999986    0.5000000000000000    0.4107142857142857 Cd2+
   0.7499999999999983    0.0000000000000000    0.5178571428571428 Cd2+
   0.2499999999999983    0.5000000000000000    0.4821428571428571 Cd2+
   0.7499999999999984    0.0000000000000000    0.5892857142857143 Cd2+
   0.2499999999999989    0.5000000000000000    0.5535714285714286 Cd2+
   0.7499999999999987    0.0000000000000000    0.6607142857142857 Cd2+
   0.2499999999999977    0.5000000000000000    0.6250000000000000 Cd2+
   0.7499999999999978    0.0000000000000000    0.7321428571428572 Cd2+
   0.2499999999999989    0.5000000000000000    0.6964285714285714 Cd2+
   0.7499999999999966    0.0000000000000000    0.8035714285714286 Cd2+
   0.2499999999999977    0.5000000000000000    0.7678571428571428 Cd2+
   0.7499999999999998    0.7500000000000000    0.1964285714285715 Te2-
   0.2499999999999998    0.2500000000000000    0.2321428571428572 Te2-
   0.7499999999999996    0.7500000000000000    0.2678571428571429 Te2-
   0.2500000000000000    0.2500000000000000    0.3035714285714285 Te2-
   0.7499999999999990    0.7500000000000000    0.3392857142857143 Te2-
   0.2499999999999992    0.2500000000000000    0.3750000000000000 Te2-
   0.7499999999999987    0.7500000000000000    0.4107142857142857 Te2-
   0.2499999999999993    0.2500000000000000    0.4464285714285714 Te2-
   0.7499999999999989    0.7500000000000000    0.4821428571428572 Te2-
   0.2499999999999987    0.2500000000000000    0.5178571428571428 Te2-
   0.7499999999999980    0.7500000000000000    0.5535714285714286 Te2-
   0.2499999999999989    0.2500000000000000    0.5892857142857142 Te2-
   0.7499999999999982    0.7500000000000000    0.6250000000000000 Te2-
   0.2499999999999972    0.2500000000000000    0.6607142857142856 Te2-
   0.7499999999999989    0.7500000000000000    0.6964285714285715 Te2-
   0.2499999999999986    0.2500000000000000    0.7321428571428572 Te2-
   0.7499999999999976    0.7500000000000000    0.7678571428571429 Te2-
   0.2499999999999983    0.2500000000000000    0.8035714285714286 Te2-
